Solver command line: []

Read LP format model from file C:\Users\wlhlm\AppData\Local\Temp\tmpylhps_qo.pyomo.lp
Reading time = 43.55 seconds
objective: 1005744 rows, 878399 columns, 79411710 nonzeros
Set parameter MIPGap to value 0.03
Gurobi Optimizer version 12.0.1 build v12.0.1rc0 (win64 - Windows 11.0 (26100.2))

CPU model: Intel(R) Core(TM) Ultra 7 258V, instruction set [SSE2|AVX|AVX2]
Thread count: 8 physical cores, 8 logical processors, using up to 8 threads

Non-default parameters:
MIPGap  0.03

Optimize a model with 1005744 rows, 878399 columns and 79411710 nonzeros
Model fingerprint: 0x886d819e
Model has 8783 quadratic constraints
Variable types: 755424 continuous, 122975 integer (105408 binary)
Coefficient statistics:
  Matrix range     [7e-03, 2e+02]
  QMatrix range    [1e+00, 1e+00]
  Objective range  [1e-02, 1e+03]
  Bounds range     [1e+00, 3e+00]
  RHS range        [8e-05, 1e+04]
Presolve removed 158112 rows and 122976 columns (presolve time = 7s)...
Presolve removed 619252 rows and 496275 columns (presolve time = 11s)...
Presolve removed 689364 rows and 548981 columns (presolve time = 16s)...
Presolve removed 701337 rows and 558522 columns (presolve time = 21s)...
Presolve removed 704067 rows and 561252 columns (presolve time = 25s)...
Presolve removed 704067 rows and 561252 columns (presolve time = 32s)...
Presolve removed 704067 rows and 561252 columns (presolve time = 35s)...
Presolve removed 712850 rows and 561252 columns (presolve time = 45s)...
Presolve removed 712850 rows and 561252 columns (presolve time = 48s)...
Presolve removed 712850 rows and 561253 columns (presolve time = 50s)...
Presolve removed 712850 rows and 561253 columns (presolve time = 58s)...
Presolve removed 808624 rows and 665695 columns
Presolve time: 59.48s
Presolved: 197120 rows, 212704 columns, 621295 nonzeros
Variable types: 149381 continuous, 63323 integer (63323 binary)
Performing another presolve...
Presolve removed 52700 rows and 52702 columns (presolve time = 5s)...
Presolve removed 52700 rows and 52702 columns
Presolve time: 5.36s
Deterministic concurrent LP optimizer: primal and dual simplex
Showing primal log only...


Root simplex log...

Iteration    Objective       Primal Inf.    Dual Inf.      Time
       0    5.8667598e+07   2.677545e+07   4.799657e+13     67s
Concurrent spin time: 0.01s

Solved with dual simplex

Root simplex log...

Iteration    Objective       Primal Inf.    Dual Inf.      Time
   47595    3.5550857e+07   0.000000e+00   0.000000e+00     69s

Root relaxation: objective 3.555086e+07, 47595 iterations, 2.77 seconds (3.59 work units)
Total elapsed time = 69.37s (DegenMoves)
Total elapsed time = 70.09s (DegenMoves)

    Nodes    |    Current Node    |     Objective Bounds      |     Work
 Expl Unexpl |  Obj  Depth IntInf | Incumbent    BestBd   Gap | It/Node Time

     0     0 3.5551e+07    0  712          - 3.5551e+07      -     -   72s
H    0     0                    3.588488e+07 3.5551e+07  0.93%     -   73s

Explored 1 nodes (55966 simplex iterations) in 73.94 seconds (54.99 work units)
Thread count was 8 (of 8 available processors)

Solution count 1: 3.58849e+07 

Optimal solution found (tolerance 3.00e-02)
Best objective 3.588487961636e+07, best bound 3.555085664015e+07, gap 0.9308%

